c strEdges: 125  randomEdges: 504 
c degrees:  1  2 
c girth: Inf max: -43.604516  
c Hgirth mixed MAXCUT instance
c generated from an undirected graph
c to solve unweighted MaxCut
p cnf 140 1258
52 29 0
-52 -29 0
52 54 0
-52 -54 0
66 47 0
-66 -47 0
66 20 0
-66 -20 0
133 22 0
-133 -22 0
133 8 0
-133 -8 0
63 12 0
-63 -12 0
63 6 0
-63 -6 0
28 4 0
-28 -4 0
138 105 0
-138 -105 0
138 51 0
-138 -51 0
130 77 0
-130 -77 0
130 108 0
-130 -108 0
27 49 0
-27 -49 0
27 109 0
-27 -109 0
17 96 0
-17 -96 0
17 59 0
-17 -59 0
33 83 0
-33 -83 0
33 22 0
-33 -22 0
67 74 0
-67 -74 0
67 116 0
-67 -116 0
136 102 0
-136 -102 0
136 61 0
-136 -61 0
44 125 0
-44 -125 0
44 14 0
-44 -14 0
11 40 0
-11 -40 0
11 48 0
-11 -48 0
21 126 0
-21 -126 0
21 124 0
-21 -124 0
121 37 0
-121 -37 0
43 69 0
-43 -69 0
43 56 0
-43 -56 0
57 124 0
-57 -124 0
72 9 0
-72 -9 0
72 18 0
-72 -18 0
80 24 0
-80 -24 0
80 41 0
-80 -41 0
65 8 0
-65 -8 0
65 45 0
-65 -45 0
39 51 0
-39 -51 0
115 113 0
-115 -113 0
13 6 0
-13 -6 0
13 127 0
-13 -127 0
91 127 0
-91 -127 0
91 120 0
-91 -120 0
10 71 0
-10 -71 0
10 49 0
-10 -49 0
98 2 0
-98 -2 0
98 62 0
-98 -62 0
64 48 0
-64 -48 0
64 94 0
-64 -94 0
100 20 0
-100 -20 0
50 86 0
-50 -86 0
50 2 0
-50 -2 0
88 18 0
-88 -18 0
1 56 0
-1 -56 0
1 30 0
-1 -30 0
78 3 0
-78 -3 0
78 104 0
-78 -104 0
85 61 0
-85 -61 0
90 103 0
-90 -103 0
90 69 0
-90 -69 0
117 60 0
-117 -60 0
117 129 0
-117 -129 0
75 70 0
-75 -70 0
75 107 0
-75 -107 0
139 84 0
-139 -84 0
112 32 0
-112 -32 0
93 107 0
-93 -107 0
93 3 0
-93 -3 0
122 108 0
-122 -108 0
122 25 0
-122 -25 0
34 25 0
-34 -25 0
34 35 0
-34 -35 0
119 94 0
-119 -94 0
119 7 0
-119 -7 0
135 120 0
-135 -120 0
135 84 0
-135 -84 0
76 128 0
-76 -128 0
76 26 0
-76 -26 0
123 104 0
-123 -104 0
123 19 0
-123 -19 0
99 54 0
-99 -54 0
99 87 0
-99 -87 0
53 35 0
-53 -35 0
53 4 0
-53 -4 0
73 26 0
-73 -26 0
73 29 0
-73 -29 0
55 82 0
-55 -82 0
55 47 0
-55 -47 0
131 110 0
-131 -110 0
131 15 0
-131 -15 0
137 129 0
-137 -129 0
137 92 0
-137 -92 0
31 45 0
-31 -45 0
31 103 0
-31 -103 0
68 92 0
-68 -92 0
140 38 0
-140 -38 0
140 114 0
-140 -114 0
42 19 0
-42 -19 0
42 102 0
-42 -102 0
79 30 0
-79 -30 0
118 14 0
-118 -14 0
118 37 0
-118 -37 0
46 134 0
-46 -134 0
46 38 0
-46 -38 0
95 41 0
-95 -41 0
95 126 0
-95 -126 0
81 59 0
-81 -59 0
81 82 0
-81 -82 0
36 109 0
-36 -109 0
36 74 0
-36 -74 0
101 87 0
-101 -87 0
101 110 0
-101 -110 0
16 62 0
-16 -62 0
58 116 0
-58 -116 0
58 134 0
-58 -134 0
89 5 0
-89 -5 0
89 125 0
-89 -125 0
106 97 0
-106 -97 0
111 7 0
-111 -7 0
132 15 0
-132 -15 0
132 71 0
-132 -71 0
23 114 0
-23 -114 0
23 83 0
-23 -83 0
75 51 0
-75 -51 0
27 125 0
-27 -125 0
117 62 0
-117 -62 0
122 102 0
-122 -102 0
90 105 0
-90 -105 0
42 79 0
-42 -79 0
102 128 0
-102 -128 0
44 32 0
-44 -32 0
98 117 0
-98 -117 0
34 62 0
-34 -62 0
79 94 0
-79 -94 0
101 24 0
-101 -24 0
99 6 0
-99 -6 0
36 4 0
-36 -4 0
23 2 0
-23 -2 0
36 104 0
-36 -104 0
21 46 0
-21 -46 0
31 3 0
-31 -3 0
72 14 0
-72 -14 0
115 91 0
-115 -91 0
76 18 0
-76 -18 0
31 24 0
-31 -24 0
91 56 0
-91 -56 0
79 104 0
-79 -104 0
66 57 0
-66 -57 0
46 49 0
-46 -49 0
136 25 0
-136 -25 0
11 55 0
-11 -55 0
67 110 0
-67 -110 0
93 128 0
-93 -128 0
44 90 0
-44 -90 0
86 30 0
-86 -30 0
31 111 0
-31 -111 0
55 109 0
-55 -109 0
88 2 0
-88 -2 0
55 127 0
-55 -127 0
94 97 0
-94 -97 0
96 107 0
-96 -107 0
112 122 0
-112 -122 0
71 114 0
-71 -114 0
43 84 0
-43 -84 0
111 56 0
-111 -56 0
121 78 0
-121 -78 0
118 60 0
-118 -60 0
113 129 0
-113 -129 0
27 79 0
-27 -79 0
94 116 0
-94 -116 0
27 54 0
-27 -54 0
90 77 0
-90 -77 0
1 61 0
-1 -61 0
91 101 0
-91 -101 0
112 105 0
-112 -105 0
65 32 0
-65 -32 0
99 37 0
-99 -37 0
1 82 0
-1 -82 0
27 106 0
-27 -106 0
100 9 0
-100 -9 0
59 109 0
-59 -109 0
105 62 0
-105 -62 0
78 29 0
-78 -29 0
4 51 0
-4 -51 0
65 13 0
-65 -13 0
121 7 0
-121 -7 0
121 123 0
-121 -123 0
123 35 0
-123 -35 0
32 35 0
-32 -35 0
16 24 0
-16 -24 0
46 36 0
-46 -36 0
21 90 0
-21 -90 0
136 29 0
-136 -29 0
91 124 0
-91 -124 0
64 122 0
-64 -122 0
86 114 0
-86 -114 0
105 125 0
-105 -125 0
50 41 0
-50 -41 0
125 103 0
-125 -103 0
79 77 0
-79 -77 0
33 110 0
-33 -110 0
61 92 0
-61 -92 0
36 120 0
-36 -120 0
39 64 0
-39 -64 0
5 114 0
-5 -114 0
53 58 0
-53 -58 0
80 3 0
-80 -3 0
75 48 0
-75 -48 0
117 107 0
-117 -107 0
104 97 0
-104 -97 0
79 128 0
-79 -128 0
117 45 0
-117 -45 0
55 68 0
-55 -68 0
128 59 0
-128 -59 0
112 54 0
-112 -54 0
9 7 0
-9 -7 0
18 14 0
-18 -14 0
121 64 0
-121 -64 0
99 26 0
-99 -26 0
140 79 0
-140 -79 0
28 95 0
-28 -95 0
13 95 0
-13 -95 0
28 85 0
-28 -85 0
88 106 0
-88 -106 0
52 90 0
-52 -90 0
93 69 0
-93 -69 0
113 60 0
-113 -60 0
58 126 0
-58 -126 0
16 97 0
-16 -97 0
76 110 0
-76 -110 0
102 38 0
-102 -38 0
50 46 0
-50 -46 0
18 38 0
-18 -38 0
66 2 0
-66 -2 0
71 94 0
-71 -94 0
129 134 0
-129 -134 0
39 69 0
-39 -69 0
124 92 0
-124 -92 0
135 116 0
-135 -116 0
92 97 0
-92 -97 0
1 75 0
-1 -75 0
75 35 0
-75 -35 0
57 81 0
-57 -81 0
80 115 0
-80 -115 0
80 105 0
-80 -105 0
20 35 0
-20 -35 0
58 38 0
-58 -38 0
10 36 0
-10 -36 0
77 102 0
-77 -102 0
77 20 0
-77 -20 0
124 51 0
-124 -51 0
44 115 0
-44 -115 0
17 132 0
-17 -132 0
106 2 0
-106 -2 0
1 90 0
-1 -90 0
76 86 0
-76 -86 0
4 24 0
-4 -24 0
125 38 0
-125 -38 0
133 102 0
-133 -102 0
55 56 0
-55 -56 0
98 104 0
-98 -104 0
20 54 0
-20 -54 0
100 46 0
-100 -46 0
98 90 0
-98 -90 0
39 23 0
-39 -23 0
108 59 0
-108 -59 0
53 29 0
-53 -29 0
75 68 0
-75 -68 0
102 24 0
-102 -24 0
132 69 0
-132 -69 0
99 111 0
-99 -111 0
117 31 0
-117 -31 0
57 139 0
-57 -139 0
120 92 0
-120 -92 0
113 109 0
-113 -109 0
16 82 0
-16 -82 0
3 30 0
-3 -30 0
11 42 0
-11 -42 0
4 82 0
-4 -82 0
34 41 0
-34 -41 0
131 24 0
-131 -24 0
78 92 0
-78 -92 0
133 129 0
-133 -129 0
83 18 0
-83 -18 0
77 5 0
-77 -5 0
11 60 0
-11 -60 0
137 48 0
-137 -48 0
38 14 0
-38 -14 0
55 102 0
-55 -102 0
51 120 0
-51 -120 0
56 134 0
-56 -134 0
75 49 0
-75 -49 0
51 5 0
-51 -5 0
69 108 0
-69 -108 0
96 92 0
-96 -92 0
31 61 0
-31 -61 0
22 3 0
-22 -3 0
95 18 0
-95 -18 0
108 94 0
-108 -94 0
70 30 0
-70 -30 0
123 60 0
-123 -60 0
91 35 0
-91 -35 0
72 117 0
-72 -117 0
93 120 0
-93 -120 0
17 78 0
-17 -78 0
37 107 0
-37 -107 0
128 116 0
-128 -116 0
70 104 0
-70 -104 0
50 68 0
-50 -68 0
83 114 0
-83 -114 0
43 40 0
-43 -40 0
88 61 0
-88 -61 0
93 68 0
-93 -68 0
48 86 0
-48 -86 0
77 125 0
-77 -125 0
67 57 0
-67 -57 0
80 77 0
-80 -77 0
122 69 0
-122 -69 0
43 57 0
-43 -57 0
140 9 0
-140 -9 0
88 118 0
-88 -118 0
130 91 0
-130 -91 0
85 118 0
-85 -118 0
140 101 0
-140 -101 0
69 5 0
-69 -5 0
91 62 0
-91 -62 0
85 139 0
-85 -139 0
100 15 0
-100 -15 0
138 25 0
-138 -25 0
68 29 0
-68 -29 0
63 53 0
-63 -53 0
91 122 0
-91 -122 0
132 134 0
-132 -134 0
127 45 0
-127 -45 0
47 9 0
-47 -9 0
80 118 0
-80 -118 0
39 12 0
-39 -12 0
47 82 0
-47 -82 0
64 135 0
-64 -135 0
108 129 0
-108 -129 0
124 94 0
-124 -94 0
124 5 0
-124 -5 0
68 94 0
-68 -94 0
57 110 0
-57 -110 0
108 54 0
-108 -54 0
93 122 0
-93 -122 0
67 22 0
-67 -22 0
11 84 0
-11 -84 0
50 15 0
-50 -15 0
90 137 0
-90 -137 0
102 32 0
-102 -32 0
60 26 0
-60 -26 0
115 112 0
-115 -112 0
99 7 0
-99 -7 0
126 56 0
-126 -56 0
63 75 0
-63 -75 0
13 129 0
-13 -129 0
122 109 0
-122 -109 0
55 113 0
-55 -113 0
93 123 0
-93 -123 0
102 5 0
-102 -5 0
60 14 0
-60 -14 0
37 92 0
-37 -92 0
53 47 0
-53 -47 0
112 74 0
-112 -74 0
88 51 0
-88 -51 0
108 104 0
-108 -104 0
101 5 0
-101 -5 0
26 30 0
-26 -30 0
36 62 0
-36 -62 0
66 73 0
-66 -73 0
136 77 0
-136 -77 0
112 68 0
-112 -68 0
27 132 0
-27 -132 0
73 32 0
-73 -32 0
131 70 0
-131 -70 0
75 71 0
-75 -71 0
42 83 0
-42 -83 0
126 35 0
-126 -35 0
130 104 0
-130 -104 0
107 92 0
-107 -92 0
2 59 0
-2 -59 0
90 25 0
-90 -25 0
72 46 0
-72 -46 0
2 62 0
-2 -62 0
68 110 0
-68 -110 0
49 51 0
-49 -51 0
90 5 0
-90 -5 0
91 32 0
-91 -32 0
72 40 0
-72 -40 0
70 7 0
-70 -7 0
89 83 0
-89 -83 0
69 30 0
-69 -30 0
57 125 0
-57 -125 0
11 96 0
-11 -96 0
37 94 0
-37 -94 0
20 19 0
-20 -19 0
132 29 0
-132 -29 0
82 110 0
-82 -110 0
130 14 0
-130 -14 0
96 25 0
-96 -25 0
133 19 0
-133 -19 0
17 85 0
-17 -85 0
122 107 0
-122 -107 0
74 94 0
-74 -94 0
84 128 0
-84 -128 0
121 73 0
-121 -73 0
22 41 0
-22 -41 0
46 113 0
-46 -113 0
21 37 0
-21 -37 0
80 103 0
-80 -103 0
36 38 0
-36 -38 0
132 86 0
-132 -86 0
54 116 0
-54 -116 0
60 107 0
-60 -107 0
115 123 0
-115 -123 0
63 37 0
-63 -37 0
65 126 0
-65 -126 0
47 19 0
-47 -19 0
113 18 0
-113 -18 0
72 35 0
-72 -35 0
21 100 0
-21 -100 0
136 15 0
-136 -15 0
43 1 0
-43 -1 0
67 126 0
-67 -126 0
12 128 0
-12 -128 0
65 29 0
-65 -29 0
44 124 0
-44 -124 0
33 95 0
-33 -95 0
47 18 0
-47 -18 0
125 54 0
-125 -54 0
66 126 0
-66 -126 0
137 110 0
-137 -110 0
4 94 0
-4 -94 0
28 137 0
-28 -137 0
65 123 0
-65 -123 0
21 8 0
-21 -8 0
133 92 0
-133 -92 0
75 53 0
-75 -53 0
32 120 0
-32 -120 0
29 70 0
-29 -70 0
69 129 0
-69 -129 0
1 85 0
-1 -85 0
65 79 0
-65 -79 0
123 26 0
-123 -26 0
78 26 0
-78 -26 0
119 42 0
-119 -42 0
52 7 0
-52 -7 0
117 6 0
-117 -6 0
57 90 0
-57 -90 0
133 117 0
-133 -117 0
52 48 0
-52 -48 0
105 127 0
-105 -127 0
130 81 0
-130 -81 0
21 75 0
-21 -75 0
66 137 0
-66 -137 0
50 119 0
-50 -119 0
42 16 0
-42 -16 0
124 109 0
-124 -109 0
115 8 0
-115 -8 0
12 6 0
-12 -6 0
95 129 0
-95 -129 0
10 132 0
-10 -132 0
136 49 0
-136 -49 0
133 2 0
-133 -2 0
39 127 0
-39 -127 0
19 7 0
-19 -7 0
113 71 0
-113 -71 0
40 92 0
-40 -92 0
67 119 0
-67 -119 0
66 12 0
-66 -12 0
17 2 0
-17 -2 0
135 4 0
-135 -4 0
74 97 0
-74 -97 0
86 104 0
-86 -104 0
13 128 0
-13 -128 0
68 61 0
-68 -61 0
13 137 0
-13 -137 0
18 94 0
-18 -94 0
132 102 0
-132 -102 0
74 15 0
-74 -15 0
45 15 0
-45 -15 0
40 9 0
-40 -9 0
38 114 0
-38 -114 0
52 100 0
-52 -100 0
64 97 0
-64 -97 0
140 129 0
-140 -129 0
14 7 0
-14 -7 0
50 81 0
-50 -81 0
10 30 0
-10 -30 0
8 94 0
-8 -94 0
54 110 0
-54 -110 0
121 6 0
-121 -6 0
53 22 0
-53 -22 0
47 71 0
-47 -71 0
127 62 0
-127 -62 0
29 116 0
-29 -116 0
12 30 0
-12 -30 0
46 60 0
-46 -60 0
122 94 0
-122 -94 0
101 6 0
-101 -6 0
105 54 0
-105 -54 0
9 113 0
-9 -113 0
13 103 0
-13 -103 0
50 137 0
-50 -137 0
28 55 0
-28 -55 0
105 40 0
-105 -40 0
21 58 0
-21 -58 0
47 32 0
-47 -32 0
1 58 0
-1 -58 0
124 32 0
-124 -32 0
136 3 0
-136 -3 0
73 92 0
-73 -92 0
137 42 0
-137 -42 0
91 77 0
-91 -77 0
34 86 0
-34 -86 0
83 61 0
-83 -61 0
33 123 0
-33 -123 0
11 64 0
-11 -64 0
57 120 0
-57 -120 0
132 25 0
-132 -25 0
8 30 0
-8 -30 0
20 26 0
-20 -26 0
16 71 0
-16 -71 0
53 83 0
-53 -83 0
102 113 0
-102 -113 0
137 134 0
-137 -134 0
62 97 0
-62 -97 0
90 119 0
-90 -119 0
36 70 0
-36 -70 0
118 97 0
-118 -97 0
111 20 0
-111 -20 0
39 105 0
-39 -105 0
35 14 0
-35 -14 0
28 113 0
-28 -113 0
126 20 0
-126 -20 0
22 6 0
-22 -6 0
115 68 0
-115 -68 0
135 101 0
-135 -101 0
77 96 0
-77 -96 0
42 4 0
-42 -4 0
65 85 0
-65 -85 0
118 41 0
-118 -41 0
90 113 0
-90 -113 0
100 83 0
-100 -83 0
53 14 0
-53 -14 0
108 62 0
-108 -62 0
42 6 0
-42 -6 0
11 115 0
-11 -115 0
74 108 0
-74 -108 0
60 5 0
-60 -5 0
63 19 0
-63 -19 0
37 51 0
-37 -51 0
6 60 0
-6 -60 0
118 23 0
-118 -23 0
107 26 0
-107 -26 0
43 22 0
-43 -22 0
85 79 0
-85 -79 0
31 83 0
-31 -83 0
64 102 0
-64 -102 0
36 108 0
-36 -108 0
71 20 0
-71 -20 0
121 111 0
-121 -111 0
135 125 0
-135 -125 0
86 60 0
-86 -60 0
73 77 0
-73 -77 0
121 93 0
-121 -93 0
131 14 0
-131 -14 0
63 78 0
-63 -78 0
107 128 0
-107 -128 0
93 106 0
-93 -106 0
76 55 0
-76 -55 0
138 94 0
-138 -94 0
91 98 0
-91 -98 0
74 104 0
-74 -104 0
91 116 0
-91 -116 0
100 117 0
-100 -117 0
67 81 0
-67 -81 0
84 107 0
-84 -107 0
136 69 0
-136 -69 0
78 22 0
-78 -22 0
55 128 0
-55 -128 0
57 3 0
-57 -3 0
93 108 0
-93 -108 0
108 14 0
-108 -14 0
78 49 0
-78 -49 0
100 53 0
-100 -53 0
46 124 0
-46 -124 0
23 37 0
-23 -37 0
52 138 0
-52 -138 0
1 102 0
-1 -102 0
36 5 0
-36 -5 0
53 18 0
-53 -18 0
131 113 0
-131 -113 0
52 63 0
-52 -63 0
11 134 0
-11 -134 0
68 2 0
-68 -2 0
99 4 0
-99 -4 0
137 95 0
-137 -95 0
68 97 0
-68 -97 0
106 3 0
-106 -3 0
46 110 0
-46 -110 0
136 105 0
-136 -105 0
61 107 0
-61 -107 0
79 113 0
-79 -113 0
17 3 0
-17 -3 0
81 58 0
-81 -58 0
111 15 0
-111 -15 0
94 59 0
-94 -59 0
31 69 0
-31 -69 0
93 7 0
-93 -7 0
10 60 0
-10 -60 0
68 114 0
-68 -114 0
125 126 0
-125 -126 0
47 62 0
-47 -62 0
64 118 0
-64 -118 0
95 4 0
-95 -4 0
50 120 0
-50 -120 0
13 91 0
-13 -91 0
66 128 0
-66 -128 0
42 22 0
-42 -22 0
139 6 0
-139 -6 0
33 51 0
-33 -51 0
52 84 0
-52 -84 0
127 20 0
-127 -20 0
63 132 0
-63 -132 0
112 120 0
-112 -120 0
